unsat
(:binary-propagations  44
 :conflicts            1
 :final-checks         1
 :max-generation       1
 :max-memory           34.89
 :memory               24.69
 :mk-bool-var          5313
 :mk-clause            1158
 :mk-clause-binary     4297
 :num-allocs           233584292
 :num-checks           1
 :propagations         44
 :quant-instantiations 662
 :restarts             1
 :rlimit-count         1401869
 :time                 0.18)
